#######################



#######################
Set parameter TimeLimit to value 300
Set parameter SoftMemLimit to value 125
Set parameter MIPFocus to value 3
Set parameter LogFile to value 1003-MIPFocus3-Presolve1-TimeLimit300-k16x240-0.log
Set parameter Presolve to value 1
Using license file /opt/gurobi/gurobi.lic

Gurobi Optimizer version 10.0.3 build v10.0.3rc0 (linux64)
Copyright (c) 2023, Gurobi Optimization, LLC

Read MPS format model from file /miplib2010/k16x240.mps.bz2
Reading time = 0.00 seconds
k16x240: 256 rows, 480 columns, 960 nonzeros

CPU model: Intel(R) Xeon(R) E-2388G CPU @ 3.20GHz, instruction set [SSE2|AVX|AVX2|AVX512]
Thread count: 8 physical cores, 16 logical processors, using up to 16 threads

Optimize a model with 256 rows, 480 columns and 960 nonzeros
Model fingerprint: 0x4e80885f
Variable types: 240 continuous, 240 integer (240 binary)
Coefficient statistics:
  Matrix range     [1e+00, 1e+03]
  Objective range  [1e+00, 1e+03]
  Bounds range     [1e+00, 1e+03]
  RHS range        [4e+00, 4e+02]
Found heuristic solution: objective 23615.000000
Presolve time: 0.00s
Presolved: 256 rows, 480 columns, 960 nonzeros
Variable types: 240 continuous, 240 integer (240 binary)

Root relaxation: objective 2.769838e+03, 51 iterations, 0.00 seconds (0.00 work units)

    Nodes    |    Current Node    |     Objective Bounds      |     Work
 Expl Unexpl |  Obj  Depth IntInf | Incumbent    BestBd   Gap | It/Node Time

     0     0 2769.83800    0   14 23615.0000 2769.83800  88.3%     -    0s
H    0     0                    11359.000000 2769.83800  75.6%     -    0s
H    0     0                    11195.000000 2769.83800  75.3%     -    0s
H    0     0                    11074.000000 8116.87580  26.7%     -    0s
H    0     0                    10916.000000 8116.87580  25.6%     -    0s
     0     0 8116.87580    0   26 10916.0000 8116.87580  25.6%     -    0s
H    0     0                    10826.000000 8116.87580  25.0%     -    0s
     0     0 8742.09840    0   28 10826.0000 8742.09840  19.2%     -    0s
     0     0 8972.51442    0   22 10826.0000 8972.51442  17.1%     -    0s
H    0     0                    10804.000000 8972.51442  17.0%     -    0s
     0     0 9116.20609    0   34 10804.0000 9116.20609  15.6%     -    0s
     0     0 9132.42006    0   38 10804.0000 9132.42006  15.5%     -    0s
     0     0 9132.42006    0   43 10804.0000 9132.42006  15.5%     -    0s
     0     0 9132.42006    0   42 10804.0000 9132.42006  15.5%     -    0s
     0     0 9151.25842    0   29 10804.0000 9151.25842  15.3%     -    0s
     0     0 9159.98125    0   33 10804.0000 9159.98125  15.2%     -    0s
     0     0 9159.98125    0   34 10804.0000 9159.98125  15.2%     -    0s
H    0     0                    10765.000000 9159.98125  14.9%     -    0s
     0     0 9205.69191    0   29 10765.0000 9205.69191  14.5%     -    0s
     0     0 9210.68231    0   29 10765.0000 9210.68231  14.4%     -    0s
H    0     0                    10681.000000 9210.68231  13.8%     -    0s
     0     2 9210.68231    0   29 10681.0000 9210.68231  13.8%     -    0s
H   34    40                    10678.000000 9372.73526  12.2%  72.4    0s
H  196   206                    10674.000000 9503.01649  11.0%  48.0    0s
  3789  2959 10286.5280   22   12 10674.0000 10236.3239  4.10%  77.9    5s
 16439  9750     cutoff   32      10674.0000 10454.6172  2.06%  60.4   10s
 41975 10886     cutoff   35      10674.0000 10599.5431  0.70%  42.7   15s

Cutting planes:
  Gomory: 3
  Lift-and-project: 5
  Cover: 2
  Implied bound: 11
  MIR: 152
  Flow cover: 503
  Flow path: 40
  Zero half: 39
  Network: 15
  Relax-and-lift: 7

Explored 60110 nodes (2046202 simplex iterations) in 16.67 seconds (22.40 work units)
Thread count was 16 (of 16 available processors)

Solution count 10: 10674 10678 10681 ... 11359

Optimal solution found (tolerance 1.00e-04)
Best objective 1.067400000000e+04, best bound 1.067307929596e+04, gap 0.0086%
